c WARNING: for repeatability, setting FPU to use double precision
d VARIABLES            141558       
d CONSTRAINTS          515412       
c ============================[ Problem Statistics ]=============================
c |                                                                             |
c |  Number of variables:        141558                                         |
c |  Number of clauses:          515412                                         |
c |  Parse time:                   0.08 s                                       |
c |                                                                             |
c ============================[ Search Statistics ]==============================
c | Conflicts |          ORIGINAL         |          LEARNT          | Progress |
c |           |    Vars  Clauses Literals |    Limit  Clauses Lit/Cl |          |
c ===============================================================================
c |       100 |  111387   437190  1097387 |   160303       99     38 | 21.314 % |
c |       250 |  111382   437190  1097387 |   176333      244     22 | 21.317 % |
c |       475 |  111382   437166  1097327 |   193966      469     20 | 21.317 % |
c |       812 |  111382   437166  1097327 |   213363      806     30 | 21.317 % |
c |      1318 |  111382   437166  1097327 |   234699     1312     44 | 21.317 % |
c |      2077 |  111382   437166  1097327 |   258169     2071     42 | 21.317 % |
c |      3216 |  111382   437166  1097327 |   283986     3210     69 | 21.317 % |
c |      4924 |  111382   437166  1097327 |   312385     4918     66 | 21.317 % |
c |      7486 |  111382   437166  1097327 |   343623     7480     73 | 21.317 % |
c |     11330 |  111382   437166  1097327 |   377986    11324     80 | 21.317 % |
c |     17096 |  111382   437166  1097327 |   415784    17090     87 | 21.317 % |
c |     25745 |  111382   437166  1097327 |   457363    25739     92 | 21.317 % |
c |     38719 |  111382   437166  1097327 |   503099    38713    104 | 21.317 % |
c |     58180 |  111382   437166  1097327 |   553409    58174    108 | 21.317 % |
c |     87372 |  111382   437166  1097327 |   608750    87366    117 | 21.317 % |
c |    131161 |  111382   437166  1097327 |   669625   131155    128 | 21.317 % |
c |    196845 |  111382   437166  1097327 |   736587   196839    129 | 21.317 % |
c |    295371 |  111382   437166  1097327 |   810246   295365    137 | 21.317 % |
c |    443160 |  111382   437166  1097327 |   891271   443154    140 | 21.317 % |
c |    664843 |  111382   437166  1097327 |   980398   664837    149 | 21.317 % |
c |    997368 |  111382   437166  1097327 |  1078438   997362    149 | 21.317 % |
c |   1496156 |  111382   437166  1097327 |  1186282   400659    159 | 21.317 % |
c |   2244338 |  111382   437166  1097327 |  1304910  1148841    161 | 21.317 % |
c ===============================================================================
c restarts              : 4094
c conflicts             : 2250611        (1255 /sec)
c decisions             : 5906798        (0.00 % random) (3294 /sec)
c propagations          : 2640160561     (1472390 /sec)
c conflict literals     : 349548630      (45.13 % deleted)
d RESTARTS             4094
d FAILURES             2250611      
d NODES                5906798      
d BACKTRACKS           5906798      
d PROPAGATIONS         2640160561   
d NOGOODSIZE           155.31 
d MEMORY               1032.00 
d TIME                 1793.11 

s UNKNOWN
